8 11
21 12
9 17 2 2
6 7 3 3
18 5 1 2
18 18 2 4
19 10 2 4
12 15 1 4
19 3 2 3
17 12 1 5
3 8 2 5
17 16 3 1
18 20 3 2
15 10 2 3
16 1 3 2
1 10 1 5
2 2 2 4
18 4 1 5
1 5 2 4
10 15 2 3
12 11 2 5
2 3 2 3
12 13 2 1
